c generated by sgen
p cnf 125 260
-2 -3 -4 0
-1 -3 -4 0
-1 -2 -4 0
-1 -2 -3 0
-6 -7 -8 0
-5 -7 -8 0
-5 -6 -8 0
-5 -6 -7 0
-10 -11 -12 0
-9 -11 -12 0
-9 -10 -12 0
-9 -10 -11 0
-14 -15 -16 0
-13 -15 -16 0
-13 -14 -16 0
-13 -14 -15 0
-18 -19 -20 0
-17 -19 -20 0
-17 -18 -20 0
-17 -18 -19 0
-22 -23 -24 0
-21 -23 -24 0
-21 -22 -24 0
-21 -22 -23 0
-26 -27 -28 0
-25 -27 -28 0
-25 -26 -28 0
-25 -26 -27 0
-30 -31 -32 0
-29 -31 -32 0
-29 -30 -32 0
-29 -30 -31 0
-34 -35 -36 0
-33 -35 -36 0
-33 -34 -36 0
-33 -34 -35 0
-38 -39 -40 0
-37 -39 -40 0
-37 -38 -40 0
-37 -38 -39 0
-42 -43 -44 0
-41 -43 -44 0
-41 -42 -44 0
-41 -42 -43 0
-46 -47 -48 0
-45 -47 -48 0
-45 -46 -48 0
-45 -46 -47 0
-50 -51 -52 0
-49 -51 -52 0
-49 -50 -52 0
-49 -50 -51 0
-54 -55 -56 0
-53 -55 -56 0
-53 -54 -56 0
-53 -54 -55 0
-58 -59 -60 0
-57 -59 -60 0
-57 -58 -60 0
-57 -58 -59 0
-62 -63 -64 0
-61 -63 -64 0
-61 -62 -64 0
-61 -62 -63 0
-66 -67 -68 0
-65 -67 -68 0
-65 -66 -68 0
-65 -66 -67 0
-70 -71 -72 0
-69 -71 -72 0
-69 -70 -72 0
-69 -70 -71 0
-74 -75 -76 0
-73 -75 -76 0
-73 -74 -76 0
-73 -74 -75 0
-78 -79 -80 0
-77 -79 -80 0
-77 -78 -80 0
-77 -78 -79 0
-82 -83 -84 0
-81 -83 -84 0
-81 -82 -84 0
-81 -82 -83 0
-86 -87 -88 0
-85 -87 -88 0
-85 -86 -88 0
-85 -86 -87 0
-90 -91 -92 0
-89 -91 -92 0
-89 -90 -92 0
-89 -90 -91 0
-94 -95 -96 0
-93 -95 -96 0
-93 -94 -96 0
-93 -94 -95 0
-98 -99 -100 0
-97 -99 -100 0
-97 -98 -100 0
-97 -98 -99 0
-102 -103 -104 0
-101 -103 -104 0
-101 -102 -104 0
-101 -102 -103 0
-106 -107 -108 0
-105 -107 -108 0
-105 -106 -108 0
-105 -106 -107 0
-110 -111 -112 0
-109 -111 -112 0
-109 -110 -112 0
-109 -110 -111 0
-114 -115 -116 0
-113 -115 -116 0
-113 -114 -116 0
-113 -114 -115 0
-118 -119 -120 0
-117 -119 -120 0
-117 -118 -120 0
-117 -118 -119 0
-121 -122 -123 0
-121 -122 -124 0
-121 -122 -125 0
-121 -123 -124 0
-121 -123 -125 0
-121 -124 -125 0
-122 -123 -124 0
-122 -123 -125 0
-122 -124 -125 0
-123 -124 -125 0
28 79 20 0
44 79 20 0
44 28 20 0
44 28 79 0
50 92 56 0
66 92 56 0
66 50 56 0
66 50 92 0
74 48 122 0
118 48 122 0
118 74 122 0
118 74 48 0
12 39 41 0
72 39 41 0
72 12 41 0
72 12 39 0
97 49 21 0
37 49 21 0
37 97 21 0
37 97 49 0
1 106 116 0
68 106 116 0
68 1 116 0
68 1 106 0
14 54 111 0
86 54 111 0
86 14 111 0
86 14 54 0
101 13 105 0
96 13 105 0
96 101 105 0
96 101 13 0
59 65 103 0
11 65 103 0
11 59 103 0
11 59 65 0
107 119 6 0
42 119 6 0
42 107 6 0
42 107 119 0
109 81 25 0
102 81 25 0
102 109 25 0
102 109 81 0
10 115 46 0
63 115 46 0
63 10 46 0
63 10 115 0
16 78 36 0
3 78 36 0
3 16 36 0
3 16 78 0
9 123 22 0
82 123 22 0
82 9 22 0
82 9 123 0
27 34 88 0
70 34 88 0
70 27 88 0
70 27 34 0
104 85 29 0
80 85 29 0
80 104 29 0
80 104 85 0
62 60 23 0
73 60 23 0
73 62 23 0
73 62 60 0
51 19 75 0
95 19 75 0
95 51 75 0
95 51 19 0
31 18 69 0
83 18 69 0
83 31 69 0
83 31 18 0
108 71 91 0
24 71 91 0
24 108 91 0
24 108 71 0
8 4 52 0
30 4 52 0
30 8 52 0
30 8 4 0
47 5 58 0
40 5 58 0
40 47 58 0
40 47 5 0
121 99 113 0
110 99 113 0
110 121 113 0
110 121 99 0
98 89 87 0
76 89 87 0
76 98 87 0
76 98 89 0
120 26 125 0
53 26 125 0
53 120 125 0
53 120 26 0
15 45 43 0
67 45 43 0
67 15 43 0
67 15 45 0
38 55 17 0
114 55 17 0
114 38 17 0
114 38 55 0
117 84 61 0
2 84 61 0
2 117 61 0
2 117 84 0
93 64 77 0
100 64 77 0
100 93 77 0
100 93 64 0
35 7 90 0
124 7 90 0
124 35 90 0
124 35 7 0
32 57 112 0
32 57 33 0
32 57 94 0
32 112 33 0
32 112 94 0
32 33 94 0
57 112 33 0
57 112 94 0
57 33 94 0
112 33 94 0
